
Gurobi 5.6.3 (mac64) logging started Thu Aug 28 13:56:10 2014


Gurobi 5.6.3 (mac64) logging started Thu Aug 28 14:28:17 2014


Gurobi 5.6.3 (mac64) logging started Thu Aug 28 14:43:51 2014


Gurobi 5.6.3 (mac64) logging started Wed Sep 10 16:44:24 2014


Gurobi 5.6.3 (mac64) logging started Mon Sep 29 16:35:48 2014


Gurobi 5.6.3 (mac64) logging started Thu Oct 23 15:04:02 2014


Gurobi 5.6.3 (mac64) logging started Thu Oct 23 15:25:45 2014


Gurobi 5.6.3 (mac64) logging started Thu Oct 23 15:32:52 2014


Gurobi 5.6.3 (mac64) logging started Thu Oct 23 15:38:54 2014


Gurobi 5.6.3 (mac64) logging started Thu Oct 23 15:39:52 2014


Gurobi 5.6.3 (mac64) logging started Thu Oct 23 15:40:05 2014


Gurobi 5.6.3 (mac64) logging started Thu Oct 23 15:40:36 2014


Gurobi 5.6.3 (mac64) logging started Thu Oct 23 15:40:58 2014


Gurobi 5.6.3 (mac64) logging started Thu Oct 23 15:41:15 2014


Gurobi 5.6.3 (mac64) logging started Thu Oct 23 15:42:21 2014


Gurobi 5.6.3 (mac64) logging started Thu Oct 23 15:43:56 2014


Gurobi 5.6.3 (mac64) logging started Thu Oct 23 15:44:16 2014


Gurobi 5.6.3 (mac64) logging started Thu Oct 23 15:44:34 2014


Gurobi 5.6.3 (mac64) logging started Thu Oct 23 15:50:21 2014


Gurobi 5.6.3 (mac64) logging started Thu Oct 23 15:50:25 2014


Gurobi 5.6.3 (mac64) logging started Thu Oct 23 15:53:05 2014


Gurobi 5.6.3 (mac64) logging started Thu Oct 23 15:54:49 2014


Gurobi 5.6.3 (mac64) logging started Thu Oct 23 16:06:20 2014

